;; Mutation-Based Equivalence Benchmark
;; Source:     AutomatArk / instance12062.smt2
;; Mutations:  literal_char_inc, literal_char_inc
;; Status:     sat
;;
;; Original regex vs mutated regex
;; Equivalence check: unsat ⟺ L(R1) = L(R2)

(set-info :smt-lib-version 2.6)
(set-info :category "mutation")
(set-info :status sat)
(set-logic QF_S)


;; R1: original
;; R2: mutated (literal_char_inc, literal_char_inc)
(assert
  (not
    (=
      (re.union (re.++ (re.union (re.++ (str.to_re "0") (re.range "1" "9")) (re.++ (re.union (str.to_re "1") (str.to_re "2")) (re.range "0" "9")) (re.++ (str.to_re "3") (re.union (str.to_re "0") (str.to_re "1")))) (re.union (str.to_re ".") (str.to_re "-") (str.to_re "/") (str.to_re " ") (str.to_re "\u{9}") (str.to_re "\u{a}") (str.to_re "\u{c}") (str.to_re "\u{d}")) (re.union (re.++ (str.to_re "J") (re.union (str.to_re "anuary") (str.to_re "uly") (str.to_re "an") (str.to_re "AN"))) (re.++ (str.to_re "M") (re.union (str.to_re "arch") (str.to_re "ar") (str.to_re "AR") (str.to_re "ay") (str.to_re "AY"))) (re.++ (str.to_re "A") (re.union (str.to_re "ugust") (str.to_re "ug") (str.to_re "UG"))) (re.++ (str.to_re "O") (re.union (str.to_re "ctober") (str.to_re "ct") (str.to_re "CT"))) (re.++ (str.to_re "D") (re.union (str.to_re "ecember") (str.to_re "ec") (str.to_re "EC")))) (re.union (str.to_re ".") (str.to_re "-") (str.to_re "/") (str.to_re " ") (str.to_re "\u{9}") (str.to_re "\u{a}") (str.to_re "\u{c}") (str.to_re "\u{d}")) (re.range "1" "9") ((_ re.loop 3 3) (re.range "0" "9"))) (re.++ (re.union (re.++ (str.to_re "0") (re.range "1" "9")) (re.++ (re.union (str.to_re "1") (str.to_re "2")) (re.range "0" "9")) (str.to_re "30")) (re.union (str.to_re ".") (str.to_re "-") (str.to_re "/") (str.to_re " ") (str.to_re "\u{9}") (str.to_re "\u{a}") (str.to_re "\u{c}") (str.to_re "\u{d}")) (re.union (re.++ (str.to_re "A") (re.union (str.to_re "pril") (str.to_re "pr") (str.to_re "PR"))) (re.++ (str.to_re "J") (re.union (str.to_re "une") (str.to_re "un") (str.to_re "UN"))) (re.++ (str.to_re "S") (re.union (str.to_re "eptember") (str.to_re "ep") (str.to_re "EP"))) (re.++ (str.to_re "N") (re.union (str.to_re "ovember") (str.to_re "ov") (str.to_re "OV")))) (re.union (str.to_re ".") (str.to_re "-") (str.to_re "/") (str.to_re " ") (str.to_re "\u{9}") (str.to_re "\u{a}") (str.to_re "\u{c}") (str.to_re "\u{d}")) (re.range "1" "9") ((_ re.loop 3 3) (re.range "0" "9"))) (re.++ (re.union (re.++ (str.to_re "0") (re.range "1" "9")) (re.++ (str.to_re "1") (re.range "0" "9")) (re.++ (str.to_re "2") (re.range "0" "8"))) (re.union (str.to_re ".") (str.to_re "-") (str.to_re "/") (str.to_re " ") (str.to_re "\u{9}") (str.to_re "\u{a}") (str.to_re "\u{c}") (str.to_re "\u{d}")) (str.to_re "F") (re.union (str.to_re "ebruary") (str.to_re "eb") (str.to_re "EB")) (re.union (str.to_re ".") (str.to_re "-") (str.to_re "/") (str.to_re " ") (str.to_re "\u{9}") (str.to_re "\u{a}") (str.to_re "\u{c}") (str.to_re "\u{d}")) (re.range "1" "9") ((_ re.loop 3 3) (re.range "0" "9"))) (re.++ (str.to_re "29") (re.union (str.to_re ".") (str.to_re "-") (str.to_re "/") (str.to_re " ") (str.to_re "\u{9}") (str.to_re "\u{a}") (str.to_re "\u{c}") (str.to_re "\u{d}")) (str.to_re "F") (re.union (str.to_re "ebruary") (str.to_re "eb") (str.to_re "EB")) (re.union (str.to_re ".") (str.to_re "-") (str.to_re "/") (str.to_re " ") (str.to_re "\u{9}") (str.to_re "\u{a}") (str.to_re "\u{c}") (str.to_re "\u{d}")) (re.union (re.++ (re.union (re.++ (str.to_re "0") (re.union (str.to_re "4") (str.to_re "8"))) (re.++ (re.union (str.to_re "2") (str.to_re "4") (str.to_re "6") (str.to_re "8")) (re.union (str.to_re "0") (str.to_re "4") (str.to_re "8"))) (re.++ (re.union (str.to_re "1") (str.to_re "3") (str.to_re "5") (str.to_re "7") (str.to_re "9")) (re.union (str.to_re "2") (str.to_re "6")))) (str.to_re "00")) (re.++ ((_ re.loop 2 2) (re.range "0" "9")) (re.union (re.++ (str.to_re "0") (re.union (str.to_re "4") (str.to_re "8"))) (re.++ (re.union (str.to_re "2") (str.to_re "4") (str.to_re "6") (str.to_re "8")) (re.union (str.to_re "0") (str.to_re "4") (str.to_re "8"))) (re.++ (re.union (str.to_re "1") (str.to_re "3") (str.to_re "5") (str.to_re "7") (str.to_re "9")) (re.union (str.to_re "2") (str.to_re "6")))))) (str.to_re "\u{a}")))
      (re.union (re.++ (re.union (re.++ (str.to_re "0") (re.range "1" "9")) (re.++ (re.union (str.to_re "1") (str.to_re "2")) (re.range "0" "9")) (re.++ (str.to_re "3") (re.union (str.to_re "0") (str.to_re "1")))) (re.union (str.to_re ".") (str.to_re "-") (str.to_re "/") (str.to_re " ") (str.to_re "\u{9}") (str.to_re "\u{a}") (str.to_re "\u{c}") (str.to_re "\u{d}")) (re.union (re.++ (str.to_re "J") (re.union (str.to_re "anuary") (str.to_re "uly") (str.to_re "an") (str.to_re "AN"))) (re.++ (str.to_re "M") (re.union (str.to_re "arch") (str.to_re "ar") (str.to_re "AR") (str.to_re "ay") (str.to_re "AY"))) (re.++ (str.to_re "A") (re.union (str.to_re "ugust") (str.to_re "ug") (str.to_re "UG"))) (re.++ (str.to_re "O") (re.union (str.to_re "ctober") (str.to_re "ct") (str.to_re "CT"))) (re.++ (str.to_re "D") (re.union (str.to_re "ecember") (str.to_re "ec") (str.to_re "EC")))) (re.union (str.to_re ".") (str.to_re "-") (str.to_re "/") (str.to_re " ") (str.to_re "\u{9}") (str.to_re "\u{a}") (str.to_re "\u{c}") (str.to_re "\u{d}")) (re.range "1" "9") ((_ re.loop 3 3) (re.range "0" "9"))) (re.++ (re.union (re.++ (str.to_re "0") (re.range "1" "9")) (re.++ (re.union (str.to_re "1") (str.to_re "2")) (re.range "0" "9")) (str.to_re "30")) (re.union (str.to_re ".") (str.to_re "-") (str.to_re "/") (str.to_re " ") (str.to_re "\u{9}") (str.to_re "\u{a}") (str.to_re "\u{c}") (str.to_re "\u{d}")) (re.union (re.++ (str.to_re "A") (re.union (str.to_re "prim") (str.to_re "pr") (str.to_re "PR"))) (re.++ (str.to_re "J") (re.union (str.to_re "une") (str.to_re "un") (str.to_re "UN"))) (re.++ (str.to_re "S") (re.union (str.to_re "eptember") (str.to_re "ep") (str.to_re "EP"))) (re.++ (str.to_re "N") (re.union (str.to_re "ovember") (str.to_re "ov") (str.to_re "OV")))) (re.union (str.to_re ".") (str.to_re "-") (str.to_re "/") (str.to_re " ") (str.to_re "\u{9}") (str.to_re "\u{a}") (str.to_re "\u{c}") (str.to_re "\u{d}")) (re.range "1" "9") ((_ re.loop 3 3) (re.range "0" "9"))) (re.++ (re.union (re.++ (str.to_re "0") (re.range "1" "9")) (re.++ (str.to_re "1") (re.range "0" "9")) (re.++ (str.to_re "2") (re.range "0" "8"))) (re.union (str.to_re ".") (str.to_re "-") (str.to_re "/") (str.to_re " ") (str.to_re "\u{9}") (str.to_re "\u{a}") (str.to_re "\u{c}") (str.to_re "\u{d}")) (str.to_re "F") (re.union (str.to_re "ebruary") (str.to_re "eb") (str.to_re "EB")) (re.union (str.to_re ".") (str.to_re "-") (str.to_re "/") (str.to_re " ") (str.to_re "\u{9}") (str.to_re "\u{a}") (str.to_re "\u{c}") (str.to_re "\u{d}")) (re.range "1" "9") ((_ re.loop 3 3) (re.range "0" "9"))) (re.++ (str.to_re "29") (re.union (str.to_re ".") (str.to_re "-") (str.to_re "/") (str.to_re " ") (str.to_re "\u{9}") (str.to_re "\u{a}") (str.to_re "\u{c}") (str.to_re "\u{d}")) (str.to_re "F") (re.union (str.to_re "ebruary") (str.to_re "eb") (str.to_re "EB")) (re.union (str.to_re ".") (str.to_re "-") (str.to_re "/") (str.to_re " ") (str.to_re "\u{9}") (str.to_re "\u{a}") (str.to_re "\u{c}") (str.to_re "\u{d}")) (re.union (re.++ (re.union (re.++ (str.to_re "0") (re.union (str.to_re "4") (str.to_re "8"))) (re.++ (re.union (str.to_re "2") (str.to_re "4") (str.to_re "6") (str.to_re "8")) (re.union (str.to_re "0") (str.to_re "4") (str.to_re "8"))) (re.++ (re.union (str.to_re "1") (str.to_re "3") (str.to_re "5") (str.to_re "7") (str.to_re "9")) (re.union (str.to_re "2") (str.to_re "6")))) (str.to_re "00")) (re.++ ((_ re.loop 2 2) (re.range "0" "9")) (re.union (re.++ (str.to_re "0") (re.union (str.to_re "4") (str.to_re "8"))) (re.++ (re.union (str.to_re "2") (str.to_re "4") (str.to_re "6") (str.to_re "8")) (re.union (str.to_re "1") (str.to_re "4") (str.to_re "8"))) (re.++ (re.union (str.to_re "1") (str.to_re "3") (str.to_re "5") (str.to_re "7") (str.to_re "9")) (re.union (str.to_re "2") (str.to_re "6")))))) (str.to_re "\u{a}"))))))

(check-sat)
(exit)
